root_relax = 70.66
QCR_time = 12.1396
opt = true
obj_val = 70.0
solved_time = 0.9945
explored_nodes = 334
nb_dom_cuts = 13512
robi/QCR_QP_Dom/21_2_2019_b.txt"
Set parameter Presolve to value 0
Set parameter AggFill to value -1
Set parameter Aggregate to value 0
Set parameter Heuristics to value 0
Set parameter LPWarmStart to value 0
Set parameter NLPHeur to value 0
Set parameter NoRelHeurTime to value 0
Set parameter PreCrush to value 0
Set parameter PreDepRow to value 0
Set parameter PreDual to value 0
Set parameter PrePasses to value -1
Set parameter RINS to value 0
Set parameter Symmetry to value 0
Set parameter PreQLinearize to value 0
Set parameter NonConvex to value 0

Gurobi 12.0.0 (linux64) logging started Thu Aug 14 18:02:51 2025

Set parameter LogFile to value "./res/Gurobi/QCR_QP_Dom/21_2_2019_b.txt"
Set parameter PreCrush to value 0
Set parameter PrePasses to value -1
Set parameter AggFill to value -1
Set parameter NoRelHeurTime to value 0
Set parameter NLPHeur to value 0
Set parameter NonConvex to value 0
Set parameter LPWarmStart to value 0
Set parameter PreDepRow to value 0
Set parameter Symmetry to value 0
Set parameter Presolve to value 0
Gurobi Optimizer version 12.0.0 build v12.0.0rc1 (linux64 - "Debian GNU/Linux 12 (bookworm)")

CPU model: Intel(R) Xeon(R) CPU E5-2650 v3 @ 2.30GHz, instruction set [SSE2|AVX|AVX2]
Thread count: 20 physical cores, 40 logical processors, using up to 20 threads

Non-default parameters:
TimeLimit  1800
LPWarmStart  0
Heuristics  0
RINS  0
NLPHeur  0
Symmetry  0
Aggregate  0
PreDual  0
NonConvex  0
PreDepRow  0
PreQLinearize  0
Presolve  0

Optimize a model with 13512 rows, 60 columns and 89690 nonzeros
Model fingerprint: 0x16ef3fb2
Model has 135 quadratic objective terms
Variable types: 0 continuous, 60 integer (60 binary)
Coefficient statistics:
  Matrix range     [1e+00, 1e+00]
  Objective range  [1e-05, 1e+01]
  QObjective range [2e-05, 1e+01]
  Bounds range     [0e+00, 0e+00]
  RHS range        [1e+00, 3e+01]
Variable types: 0 continuous, 60 integer (60 binary)

Root relaxation: objective -7.068760e+01, 293 iterations, 0.06 seconds (0.04 work units)

    Nodes    |    Current Node    |     Objective Bounds      |     Work
 Expl Unexpl |  Obj  Depth IntInf | Incumbent    BestBd   Gap | It/Node Time

     0     0  -70.68760    0   60          -  -70.68760      -     -    0s
H    0     0                     -70.0000000  -70.68760  0.98%     -    0s
     0     0  -70.66016    0   60  -70.00000  -70.66016  0.94%     -    0s
     0     2  -70.66016    0   60  -70.00000  -70.66016  0.94%     -    0s

Explored 334 nodes (1833 simplex iterations) in 0.99 seconds (0.50 work units)
Thread count was 20 (of 40 available processors)

Solution count 1: -70 

Optimal solution found (tolerance 1.00e-04)
Best objective -7.000000000000e+01, best bound -7.000001750225e+01, gap 0.0000%

User-callback calls 1009, time in user-callback 0.00 sec
